Maximize
  - 3.1729908343544 edge_0_1_0_0 - 2.9828762082665 edge_0_2_0_0
   - 3.245637756231 edge_0_3_0_0 - 3.3154384085888 edge_0_5_0_0
   - 3.3401174899122 edge_0_7_0_0 - 2.9782623223111 edge_0_8_0_0
   - 2.0075279723947 edge_0_9_0_0 - 3.1654900775394 edge_0_10_0_0
   - 3.3036756721792 edge_0_12_0_0 - 4.544997545699999 edge_0_13_0_0
   + 0.8894966351350323 edge_1_2_0_0 + 0.6002296808084848 edge_1_3_0_0
   + 0.3519963480687118 edge_1_5_0_0 + 0.3551969029141575 edge_1_7_0_0
   + 0.3899403808725376 edge_1_9_0_0 - 0.4782396608012224 edge_1_10_0_0
   - 0.5369718206253135 edge_1_12_0_0 + 0.5218907043356674 edge_1_13_0_0
   + 1.699411352788285 edge_2_1_0_0 + 1.338255501715215 edge_2_3_0_0
   + 2.257480678489754 edge_2_5_0_0 + 0.7656072779200015 edge_2_7_0_0
   + 1.094776387720731 edge_2_9_0_0 + 0.2963338763182107 edge_2_10_0_0
   + 0.394703255970872 edge_2_11_0_0 + 0.8976967955041574 edge_2_12_0_0
   + 1.811053474783595 edge_2_13_0_0 - 0.0761728316876862 edge_3_1_0_0
   + 0.8554778071304858 edge_3_2_0_0 + 0.8247013212342 edge_3_5_0_0
   - 0.1113497094002074 edge_3_6_0_0 + 0.6886389374208262 edge_3_7_0_0
   + 0.1317928142805467 edge_3_8_0_0 + 0.0176578826712405 edge_3_9_0_0
   - 0.9579305110163262 edge_3_10_0_0 - 0.8235695105148162 edge_3_11_0_0
   - 0.4933200851160919 edge_3_12_0_0 - 0.1369907404733 edge_3_13_0_0
   + 0.2577665206376107 edge_5_1_0_0 + 3.3355033225607 edge_5_2_0_0
   + 4.123594967658 edge_5_3_0_0 + 0.7819296846867 edge_5_6_0_0
   + 2.78311 edge_5_7_0_0 + 1.3710776199925 edge_5_8_0_0
   + 1.19634821743908 edge_5_9_0_0 + 0.1098401713780924 edge_5_10_0_0
   + 0.149681834364445 edge_5_11_0_0 + 0.46806591574812 edge_5_12_0_0
   + 1.395638576447562 edge_5_13_0_0 + 0.29097042392948 edge_6_5_0_0
   + 1.578207161363 edge_6_7_0_0 + 0.4571950167895728 edge_6_8_0_0
   + 0.1795501949725391 edge_6_9_0_0 - 0.4791617667844983 edge_6_10_0_0
   - 0.5856755646140193 edge_6_12_0_0 - 0.17655677431102 edge_6_13_0_0
   + 0.3097483957305861 edge_7_1_0_0 + 0.5147983031495844 edge_7_2_0_0
   + 1.414128025809007 edge_7_3_0_0 + 0.9145329105051723 edge_7_5_0_0
   + 3.2224481369734 edge_7_6_0_0 + 0.5925325100159999 edge_7_8_0_0
   + 0.3646049343711 edge_7_9_0_0 - 0.976774914108 edge_7_10_0_0
   - 0.4999522414484079 edge_7_11_0_0 + 0.3563949358489 edge_7_12_0_0
   + 0.225376 edge_7_13_0_0 - 0.0685233167925877 edge_8_2_0_0
   - 0.1028345782729226 edge_8_3_0_0 + 0.76641173257046 edge_8_5_0_0
   + 0.5246248263447545 edge_8_6_0_0 + 0.5666460468810099 edge_8_7_0_0
   + 2.144933452546609 edge_8_9_0_0 - 0.4051287740910809 edge_8_10_0_0
   + 0.847774297563629 edge_8_12_0_0 + 1.8280006230959 edge_8_13_0_0
   + 1.158859123819903 edge_9_1_0_0 + 1.189306555982165 edge_9_2_0_0
   + 1.457326855434389 edge_9_3_0_0 + 1.458567826731407 edge_9_5_0_0
   + 0.5058215238768293 edge_9_6_0_0 + 1.2622897727878 edge_9_7_0_0
   + 1.908448115822477 edge_9_8_0_0 + 1.183305759424776 edge_9_10_0_0
   + 0.8375974737251372 edge_9_11_0_0 + 1.927489306103662 edge_9_12_0_0
   + 2.289346451508749 edge_9_13_0_0 + 0.0658531892157887 edge_10_1_0_0
   - 0.5266991833856263 edge_10_2_0_0 - 0.5804494480770135 edge_10_3_0_0
   - 0.1702732618457551 edge_10_5_0_0 + 0.0194926272529252 edge_10_7_0_0
   + 0.2680795154416785 edge_10_9_0_0 + 0.8481513898852402 edge_10_11_0_0
   + 1.392975218184415 edge_10_12_0_0 + 0.1709001384245654 edge_10_13_0_0
   - 0.7088083541733972 edge_11_1_0_0 - 1.385890067032204 edge_11_2_0_0
   - 0.9467517717542915 edge_11_5_0_0 - 0.2866296544158262 edge_11_7_0_0
   - 0.5765338043445895 edge_11_9_0_0 + 0.6344082727892821 edge_11_10_0_0
   + 1.191118190555526 edge_11_12_0_0 + 0.1791371806207502 edge_11_13_0_0
   - 0.1896190769551638 edge_12_1_0_0 - 0.6000966215958459 edge_12_2_0_0
   + 0.1980617546513115 edge_12_3_0_0 + 0.0532439046932735 edge_12_5_0_0
   + 0.4659845721898907 edge_12_7_0_0 + 0.9332415218466859 edge_12_8_0_0
   + 0.2893548958322094 edge_12_9_0_0 + 2.707359013276547 edge_12_10_0_0
   + 3.615971603316794 edge_12_11_0_0 + 1.1591897913458 edge_12_13_0_0
   - 2.39788026169396 edge_13_1_0_0 - 2.784197375721605 edge_13_2_0_0
   - 2.629737317665882 edge_13_5_0_0 - 2.07136678937763 edge_13_9_0_0
   - 1.377211299730896 edge_13_10_0_0 - 1.032821688388787 edge_13_11_0_0
   - 1.440457335150019 edge_13_12_0_0
Subject To
 one_parent_1: edge_0_1_0_0 + edge_2_1_0_0 + edge_3_1_0_0 + edge_5_1_0_0
   + edge_7_1_0_0 + edge_9_1_0_0 + edge_10_1_0_0 + edge_11_1_0_0
   + edge_12_1_0_0 + edge_13_1_0_0 = 1
 consume_one_flow_unit_1: flow_0_1_0_0 - flow_1_2_0_0 - flow_1_3_0_0
   - flow_1_5_0_0 - flow_1_7_0_0 - flow_1_9_0_0 - flow_1_10_0_0
   - flow_1_12_0_0 - flow_1_13_0_0 + flow_2_1_0_0 + flow_3_1_0_0
   + flow_5_1_0_0 + flow_7_1_0_0 + flow_9_1_0_0 + flow_10_1_0_0
   + flow_11_1_0_0 + flow_12_1_0_0 + flow_13_1_0_0 = 1
 one_parent_2: edge_0_2_0_0 + edge_1_2_0_0 + edge_3_2_0_0 + edge_5_2_0_0
   + edge_7_2_0_0 + edge_8_2_0_0 + edge_9_2_0_0 + edge_10_2_0_0
   + edge_11_2_0_0 + edge_12_2_0_0 + edge_13_2_0_0 = 1
 consume_one_flow_unit_2: flow_0_2_0_0 + flow_1_2_0_0 - flow_2_1_0_0
   - flow_2_3_0_0 - flow_2_5_0_0 - flow_2_7_0_0 - flow_2_9_0_0
   - flow_2_10_0_0 - flow_2_11_0_0 - flow_2_12_0_0 - flow_2_13_0_0
   + flow_3_2_0_0 + flow_5_2_0_0 + flow_7_2_0_0 + flow_8_2_0_0
   + flow_9_2_0_0 + flow_10_2_0_0 + flow_11_2_0_0 + flow_12_2_0_0
   + flow_13_2_0_0 = 1
 one_parent_3: edge_0_3_0_0 + edge_1_3_0_0 + edge_2_3_0_0 + edge_5_3_0_0
   + edge_7_3_0_0 + edge_8_3_0_0 + edge_9_3_0_0 + edge_10_3_0_0
   + edge_12_3_0_0 = 1
 consume_one_flow_unit_3: flow_0_3_0_0 + flow_1_3_0_0 + flow_2_3_0_0
   - flow_3_1_0_0 - flow_3_2_0_0 - flow_3_5_0_0 - flow_3_6_0_0
   - flow_3_7_0_0 - flow_3_8_0_0 - flow_3_9_0_0 - flow_3_10_0_0
   - flow_3_11_0_0 - flow_3_12_0_0 - flow_3_13_0_0 + flow_5_3_0_0
   + flow_7_3_0_0 + flow_8_3_0_0 + flow_9_3_0_0 + flow_10_3_0_0
   + flow_12_3_0_0 = 1
 one_parent_4: = 1
 consume_one_flow_unit_4: = 1
 one_parent_5: edge_0_5_0_0 + edge_1_5_0_0 + edge_2_5_0_0 + edge_3_5_0_0
   + edge_6_5_0_0 + edge_7_5_0_0 + edge_8_5_0_0 + edge_9_5_0_0
   + edge_10_5_0_0 + edge_11_5_0_0 + edge_12_5_0_0 + edge_13_5_0_0 = 1
 consume_one_flow_unit_5: flow_0_5_0_0 + flow_1_5_0_0 + flow_2_5_0_0
   + flow_3_5_0_0 - flow_5_1_0_0 - flow_5_2_0_0 - flow_5_3_0_0
   - flow_5_6_0_0 - flow_5_7_0_0 - flow_5_8_0_0 - flow_5_9_0_0
   - flow_5_10_0_0 - flow_5_11_0_0 - flow_5_12_0_0 - flow_5_13_0_0
   + flow_6_5_0_0 + flow_7_5_0_0 + flow_8_5_0_0 + flow_9_5_0_0
   + flow_10_5_0_0 + flow_11_5_0_0 + flow_12_5_0_0 + flow_13_5_0_0 = 1
 one_parent_6: edge_3_6_0_0 + edge_5_6_0_0 + edge_7_6_0_0 + edge_8_6_0_0
   + edge_9_6_0_0 = 1
 consume_one_flow_unit_6: flow_3_6_0_0 + flow_5_6_0_0 - flow_6_5_0_0
   - flow_6_7_0_0 - flow_6_8_0_0 - flow_6_9_0_0 - flow_6_10_0_0
   - flow_6_12_0_0 - flow_6_13_0_0 + flow_7_6_0_0 + flow_8_6_0_0
   + flow_9_6_0_0 = 1
 one_parent_7: edge_0_7_0_0 + edge_1_7_0_0 + edge_2_7_0_0 + edge_3_7_0_0
   + edge_5_7_0_0 + edge_6_7_0_0 + edge_8_7_0_0 + edge_9_7_0_0
   + edge_10_7_0_0 + edge_11_7_0_0 + edge_12_7_0_0 = 1
 consume_one_flow_unit_7: flow_0_7_0_0 + flow_1_7_0_0 + flow_2_7_0_0
   + flow_3_7_0_0 + flow_5_7_0_0 + flow_6_7_0_0 - flow_7_1_0_0
   - flow_7_2_0_0 - flow_7_3_0_0 - flow_7_5_0_0 - flow_7_6_0_0
   - flow_7_8_0_0 - flow_7_9_0_0 - flow_7_10_0_0 - flow_7_11_0_0
   - flow_7_12_0_0 - flow_7_13_0_0 + flow_8_7_0_0 + flow_9_7_0_0
   + flow_10_7_0_0 + flow_11_7_0_0 + flow_12_7_0_0 = 1
 one_parent_8: edge_0_8_0_0 + edge_3_8_0_0 + edge_5_8_0_0 + edge_6_8_0_0
   + edge_7_8_0_0 + edge_9_8_0_0 + edge_12_8_0_0 = 1
 consume_one_flow_unit_8: flow_0_8_0_0 + flow_3_8_0_0 + flow_5_8_0_0
   + flow_6_8_0_0 + flow_7_8_0_0 - flow_8_2_0_0 - flow_8_3_0_0
   - flow_8_5_0_0 - flow_8_6_0_0 - flow_8_7_0_0 - flow_8_9_0_0
   - flow_8_10_0_0 - flow_8_12_0_0 - flow_8_13_0_0 + flow_9_8_0_0
   + flow_12_8_0_0 = 1
 one_parent_9: edge_0_9_0_0 + edge_1_9_0_0 + edge_2_9_0_0 + edge_3_9_0_0
   + edge_5_9_0_0 + edge_6_9_0_0 + edge_7_9_0_0 + edge_8_9_0_0
   + edge_10_9_0_0 + edge_11_9_0_0 + edge_12_9_0_0 + edge_13_9_0_0 = 1
 consume_one_flow_unit_9: flow_0_9_0_0 + flow_1_9_0_0 + flow_2_9_0_0
   + flow_3_9_0_0 + flow_5_9_0_0 + flow_6_9_0_0 + flow_7_9_0_0
   + flow_8_9_0_0 - flow_9_1_0_0 - flow_9_2_0_0 - flow_9_3_0_0
   - flow_9_5_0_0 - flow_9_6_0_0 - flow_9_7_0_0 - flow_9_8_0_0
   - flow_9_10_0_0 - flow_9_11_0_0 - flow_9_12_0_0 - flow_9_13_0_0
   + flow_10_9_0_0 + flow_11_9_0_0 + flow_12_9_0_0 + flow_13_9_0_0 = 1
 one_parent_10: edge_0_10_0_0 + edge_1_10_0_0 + edge_2_10_0_0
   + edge_3_10_0_0 + edge_5_10_0_0 + edge_6_10_0_0 + edge_7_10_0_0
   + edge_8_10_0_0 + edge_9_10_0_0 + edge_11_10_0_0 + edge_12_10_0_0
   + edge_13_10_0_0 = 1
 consume_one_flow_unit_10: flow_0_10_0_0 + flow_1_10_0_0 + flow_2_10_0_0
   + flow_3_10_0_0 + flow_5_10_0_0 + flow_6_10_0_0 + flow_7_10_0_0
   + flow_8_10_0_0 + flow_9_10_0_0 - flow_10_1_0_0 - flow_10_2_0_0
   - flow_10_3_0_0 - flow_10_5_0_0 - flow_10_7_0_0 - flow_10_9_0_0
   - flow_10_11_0_0 - flow_10_12_0_0 - flow_10_13_0_0 + flow_11_10_0_0
   + flow_12_10_0_0 + flow_13_10_0_0 = 1
 one_parent_11: edge_2_11_0_0 + edge_3_11_0_0 + edge_5_11_0_0
   + edge_7_11_0_0 + edge_9_11_0_0 + edge_10_11_0_0 + edge_12_11_0_0
   + edge_13_11_0_0 = 1
 consume_one_flow_unit_11: flow_2_11_0_0 + flow_3_11_0_0 + flow_5_11_0_0
   + flow_7_11_0_0 + flow_9_11_0_0 + flow_10_11_0_0 - flow_11_1_0_0
   - flow_11_2_0_0 - flow_11_5_0_0 - flow_11_7_0_0 - flow_11_9_0_0
   - flow_11_10_0_0 - flow_11_12_0_0 - flow_11_13_0_0 + flow_12_11_0_0
   + flow_13_11_0_0 = 1
 one_parent_12: edge_0_12_0_0 + edge_1_12_0_0 + edge_2_12_0_0
   + edge_3_12_0_0 + edge_5_12_0_0 + edge_6_12_0_0 + edge_7_12_0_0
   + edge_8_12_0_0 + edge_9_12_0_0 + edge_10_12_0_0 + edge_11_12_0_0
   + edge_13_12_0_0 = 1
 consume_one_flow_unit_12: flow_0_12_0_0 + flow_1_12_0_0 + flow_2_12_0_0
   + flow_3_12_0_0 + flow_5_12_0_0 + flow_6_12_0_0 + flow_7_12_0_0
   + flow_8_12_0_0 + flow_9_12_0_0 + flow_10_12_0_0 + flow_11_12_0_0
   - flow_12_1_0_0 - flow_12_2_0_0 - flow_12_3_0_0 - flow_12_5_0_0
   - flow_12_7_0_0 - flow_12_8_0_0 - flow_12_9_0_0 - flow_12_10_0_0
   - flow_12_11_0_0 - flow_12_13_0_0 + flow_13_12_0_0 = 1
 one_parent_13: edge_0_13_0_0 + edge_1_13_0_0 + edge_2_13_0_0
   + edge_3_13_0_0 + edge_5_13_0_0 + edge_6_13_0_0 + edge_7_13_0_0
   + edge_8_13_0_0 + edge_9_13_0_0 + edge_10_13_0_0 + edge_11_13_0_0
   + edge_12_13_0_0 = 1
 consume_one_flow_unit_13: flow_0_13_0_0 + flow_1_13_0_0 + flow_2_13_0_0
   + flow_3_13_0_0 + flow_5_13_0_0 + flow_6_13_0_0 + flow_7_13_0_0
   + flow_8_13_0_0 + flow_9_13_0_0 + flow_10_13_0_0 + flow_11_13_0_0
   + flow_12_13_0_0 - flow_13_1_0_0 - flow_13_2_0_0 - flow_13_5_0_0
   - flow_13_9_0_0 - flow_13_10_0_0 - flow_13_11_0_0 - flow_13_12_0_0 = 1
 root_flow: flow_0_1_0_0 + flow_0_2_0_0 + flow_0_3_0_0 + flow_0_5_0_0
   + flow_0_7_0_0 + flow_0_8_0_0 + flow_0_9_0_0 + flow_0_10_0_0
   + flow_0_12_0_0 + flow_0_13_0_0 = 13
 inactive_no_flow_0_1_0_0: flow_0_1_0_0 - 1000 edge_0_1_0_0 <= 0
 inactive_no_flow_0_2_0_0: flow_0_2_0_0 - 1000 edge_0_2_0_0 <= 0
 inactive_no_flow_0_3_0_0: flow_0_3_0_0 - 1000 edge_0_3_0_0 <= 0
 inactive_no_flow_0_5_0_0: flow_0_5_0_0 - 1000 edge_0_5_0_0 <= 0
 inactive_no_flow_0_7_0_0: flow_0_7_0_0 - 1000 edge_0_7_0_0 <= 0
 inactive_no_flow_0_8_0_0: flow_0_8_0_0 - 1000 edge_0_8_0_0 <= 0
 inactive_no_flow_0_9_0_0: flow_0_9_0_0 - 1000 edge_0_9_0_0 <= 0
 inactive_no_flow_0_10_0_0: flow_0_10_0_0 - 1000 edge_0_10_0_0 <= 0
 inactive_no_flow_0_12_0_0: flow_0_12_0_0 - 1000 edge_0_12_0_0 <= 0
 inactive_no_flow_0_13_0_0: flow_0_13_0_0 - 1000 edge_0_13_0_0 <= 0
 inactive_no_flow_1_2_0_0: flow_1_2_0_0 - 1000 edge_1_2_0_0 <= 0
 inactive_no_flow_1_3_0_0: flow_1_3_0_0 - 1000 edge_1_3_0_0 <= 0
 inactive_no_flow_1_5_0_0: flow_1_5_0_0 - 1000 edge_1_5_0_0 <= 0
 inactive_no_flow_1_7_0_0: flow_1_7_0_0 - 1000 edge_1_7_0_0 <= 0
 inactive_no_flow_1_9_0_0: flow_1_9_0_0 - 1000 edge_1_9_0_0 <= 0
 inactive_no_flow_1_10_0_0: flow_1_10_0_0 - 1000 edge_1_10_0_0 <= 0
 inactive_no_flow_1_12_0_0: flow_1_12_0_0 - 1000 edge_1_12_0_0 <= 0
 inactive_no_flow_1_13_0_0: flow_1_13_0_0 - 1000 edge_1_13_0_0 <= 0
 inactive_no_flow_2_1_0_0: flow_2_1_0_0 - 1000 edge_2_1_0_0 <= 0
 inactive_no_flow_2_3_0_0: flow_2_3_0_0 - 1000 edge_2_3_0_0 <= 0
 inactive_no_flow_2_5_0_0: flow_2_5_0_0 - 1000 edge_2_5_0_0 <= 0
 inactive_no_flow_2_7_0_0: flow_2_7_0_0 - 1000 edge_2_7_0_0 <= 0
 inactive_no_flow_2_9_0_0: flow_2_9_0_0 - 1000 edge_2_9_0_0 <= 0
 inactive_no_flow_2_10_0_0: flow_2_10_0_0 - 1000 edge_2_10_0_0 <= 0
 inactive_no_flow_2_11_0_0: flow_2_11_0_0 - 1000 edge_2_11_0_0 <= 0
 inactive_no_flow_2_12_0_0: flow_2_12_0_0 - 1000 edge_2_12_0_0 <= 0
 inactive_no_flow_2_13_0_0: flow_2_13_0_0 - 1000 edge_2_13_0_0 <= 0
 inactive_no_flow_3_1_0_0: flow_3_1_0_0 - 1000 edge_3_1_0_0 <= 0
 inactive_no_flow_3_2_0_0: flow_3_2_0_0 - 1000 edge_3_2_0_0 <= 0
 inactive_no_flow_3_5_0_0: flow_3_5_0_0 - 1000 edge_3_5_0_0 <= 0
 inactive_no_flow_3_6_0_0: flow_3_6_0_0 - 1000 edge_3_6_0_0 <= 0
 inactive_no_flow_3_7_0_0: flow_3_7_0_0 - 1000 edge_3_7_0_0 <= 0
 inactive_no_flow_3_8_0_0: flow_3_8_0_0 - 1000 edge_3_8_0_0 <= 0
 inactive_no_flow_3_9_0_0: flow_3_9_0_0 - 1000 edge_3_9_0_0 <= 0
 inactive_no_flow_3_10_0_0: flow_3_10_0_0 - 1000 edge_3_10_0_0 <= 0
 inactive_no_flow_3_11_0_0: flow_3_11_0_0 - 1000 edge_3_11_0_0 <= 0
 inactive_no_flow_3_12_0_0: flow_3_12_0_0 - 1000 edge_3_12_0_0 <= 0
 inactive_no_flow_3_13_0_0: flow_3_13_0_0 - 1000 edge_3_13_0_0 <= 0
 inactive_no_flow_5_1_0_0: flow_5_1_0_0 - 1000 edge_5_1_0_0 <= 0
 inactive_no_flow_5_2_0_0: flow_5_2_0_0 - 1000 edge_5_2_0_0 <= 0
 inactive_no_flow_5_3_0_0: flow_5_3_0_0 - 1000 edge_5_3_0_0 <= 0
 inactive_no_flow_5_6_0_0: flow_5_6_0_0 - 1000 edge_5_6_0_0 <= 0
 inactive_no_flow_5_7_0_0: flow_5_7_0_0 - 1000 edge_5_7_0_0 <= 0
 inactive_no_flow_5_8_0_0: flow_5_8_0_0 - 1000 edge_5_8_0_0 <= 0
 inactive_no_flow_5_9_0_0: flow_5_9_0_0 - 1000 edge_5_9_0_0 <= 0
 inactive_no_flow_5_10_0_0: flow_5_10_0_0 - 1000 edge_5_10_0_0 <= 0
 inactive_no_flow_5_11_0_0: flow_5_11_0_0 - 1000 edge_5_11_0_0 <= 0
 inactive_no_flow_5_12_0_0: flow_5_12_0_0 - 1000 edge_5_12_0_0 <= 0
 inactive_no_flow_5_13_0_0: flow_5_13_0_0 - 1000 edge_5_13_0_0 <= 0
 inactive_no_flow_6_5_0_0: flow_6_5_0_0 - 1000 edge_6_5_0_0 <= 0
 inactive_no_flow_6_7_0_0: flow_6_7_0_0 - 1000 edge_6_7_0_0 <= 0
 inactive_no_flow_6_8_0_0: flow_6_8_0_0 - 1000 edge_6_8_0_0 <= 0
 inactive_no_flow_6_9_0_0: flow_6_9_0_0 - 1000 edge_6_9_0_0 <= 0
 inactive_no_flow_6_10_0_0: flow_6_10_0_0 - 1000 edge_6_10_0_0 <= 0
 inactive_no_flow_6_12_0_0: flow_6_12_0_0 - 1000 edge_6_12_0_0 <= 0
 inactive_no_flow_6_13_0_0: flow_6_13_0_0 - 1000 edge_6_13_0_0 <= 0
 inactive_no_flow_7_1_0_0: flow_7_1_0_0 - 1000 edge_7_1_0_0 <= 0
 inactive_no_flow_7_2_0_0: flow_7_2_0_0 - 1000 edge_7_2_0_0 <= 0
 inactive_no_flow_7_3_0_0: flow_7_3_0_0 - 1000 edge_7_3_0_0 <= 0
 inactive_no_flow_7_5_0_0: flow_7_5_0_0 - 1000 edge_7_5_0_0 <= 0
 inactive_no_flow_7_6_0_0: flow_7_6_0_0 - 1000 edge_7_6_0_0 <= 0
 inactive_no_flow_7_8_0_0: flow_7_8_0_0 - 1000 edge_7_8_0_0 <= 0
 inactive_no_flow_7_9_0_0: flow_7_9_0_0 - 1000 edge_7_9_0_0 <= 0
 inactive_no_flow_7_10_0_0: flow_7_10_0_0 - 1000 edge_7_10_0_0 <= 0
 inactive_no_flow_7_11_0_0: flow_7_11_0_0 - 1000 edge_7_11_0_0 <= 0
 inactive_no_flow_7_12_0_0: flow_7_12_0_0 - 1000 edge_7_12_0_0 <= 0
 inactive_no_flow_7_13_0_0: flow_7_13_0_0 - 1000 edge_7_13_0_0 <= 0
 inactive_no_flow_8_2_0_0: flow_8_2_0_0 - 1000 edge_8_2_0_0 <= 0
 inactive_no_flow_8_3_0_0: flow_8_3_0_0 - 1000 edge_8_3_0_0 <= 0
 inactive_no_flow_8_5_0_0: flow_8_5_0_0 - 1000 edge_8_5_0_0 <= 0
 inactive_no_flow_8_6_0_0: flow_8_6_0_0 - 1000 edge_8_6_0_0 <= 0
 inactive_no_flow_8_7_0_0: flow_8_7_0_0 - 1000 edge_8_7_0_0 <= 0
 inactive_no_flow_8_9_0_0: flow_8_9_0_0 - 1000 edge_8_9_0_0 <= 0
 inactive_no_flow_8_10_0_0: flow_8_10_0_0 - 1000 edge_8_10_0_0 <= 0
 inactive_no_flow_8_12_0_0: flow_8_12_0_0 - 1000 edge_8_12_0_0 <= 0
 inactive_no_flow_8_13_0_0: flow_8_13_0_0 - 1000 edge_8_13_0_0 <= 0
 inactive_no_flow_9_1_0_0: flow_9_1_0_0 - 1000 edge_9_1_0_0 <= 0
 inactive_no_flow_9_2_0_0: flow_9_2_0_0 - 1000 edge_9_2_0_0 <= 0
 inactive_no_flow_9_3_0_0: flow_9_3_0_0 - 1000 edge_9_3_0_0 <= 0
 inactive_no_flow_9_5_0_0: flow_9_5_0_0 - 1000 edge_9_5_0_0 <= 0
 inactive_no_flow_9_6_0_0: flow_9_6_0_0 - 1000 edge_9_6_0_0 <= 0
 inactive_no_flow_9_7_0_0: flow_9_7_0_0 - 1000 edge_9_7_0_0 <= 0
 inactive_no_flow_9_8_0_0: flow_9_8_0_0 - 1000 edge_9_8_0_0 <= 0
 inactive_no_flow_9_10_0_0: flow_9_10_0_0 - 1000 edge_9_10_0_0 <= 0
 inactive_no_flow_9_11_0_0: flow_9_11_0_0 - 1000 edge_9_11_0_0 <= 0
 inactive_no_flow_9_12_0_0: flow_9_12_0_0 - 1000 edge_9_12_0_0 <= 0
 inactive_no_flow_9_13_0_0: flow_9_13_0_0 - 1000 edge_9_13_0_0 <= 0
 inactive_no_flow_10_1_0_0: flow_10_1_0_0 - 1000 edge_10_1_0_0 <= 0
 inactive_no_flow_10_2_0_0: flow_10_2_0_0 - 1000 edge_10_2_0_0 <= 0
 inactive_no_flow_10_3_0_0: flow_10_3_0_0 - 1000 edge_10_3_0_0 <= 0
 inactive_no_flow_10_5_0_0: flow_10_5_0_0 - 1000 edge_10_5_0_0 <= 0
 inactive_no_flow_10_7_0_0: flow_10_7_0_0 - 1000 edge_10_7_0_0 <= 0
 inactive_no_flow_10_9_0_0: flow_10_9_0_0 - 1000 edge_10_9_0_0 <= 0
 inactive_no_flow_10_11_0_0: flow_10_11_0_0 - 1000 edge_10_11_0_0 <= 0
 inactive_no_flow_10_12_0_0: flow_10_12_0_0 - 1000 edge_10_12_0_0 <= 0
 inactive_no_flow_10_13_0_0: flow_10_13_0_0 - 1000 edge_10_13_0_0 <= 0
 inactive_no_flow_11_1_0_0: flow_11_1_0_0 - 1000 edge_11_1_0_0 <= 0
 inactive_no_flow_11_2_0_0: flow_11_2_0_0 - 1000 edge_11_2_0_0 <= 0
 inactive_no_flow_11_5_0_0: flow_11_5_0_0 - 1000 edge_11_5_0_0 <= 0
 inactive_no_flow_11_7_0_0: flow_11_7_0_0 - 1000 edge_11_7_0_0 <= 0
 inactive_no_flow_11_9_0_0: flow_11_9_0_0 - 1000 edge_11_9_0_0 <= 0
 inactive_no_flow_11_10_0_0: flow_11_10_0_0 - 1000 edge_11_10_0_0 <= 0
 inactive_no_flow_11_12_0_0: flow_11_12_0_0 - 1000 edge_11_12_0_0 <= 0
 inactive_no_flow_11_13_0_0: flow_11_13_0_0 - 1000 edge_11_13_0_0 <= 0
 inactive_no_flow_12_1_0_0: flow_12_1_0_0 - 1000 edge_12_1_0_0 <= 0
 inactive_no_flow_12_2_0_0: flow_12_2_0_0 - 1000 edge_12_2_0_0 <= 0
 inactive_no_flow_12_3_0_0: flow_12_3_0_0 - 1000 edge_12_3_0_0 <= 0
 inactive_no_flow_12_5_0_0: flow_12_5_0_0 - 1000 edge_12_5_0_0 <= 0
 inactive_no_flow_12_7_0_0: flow_12_7_0_0 - 1000 edge_12_7_0_0 <= 0
 inactive_no_flow_12_8_0_0: flow_12_8_0_0 - 1000 edge_12_8_0_0 <= 0
 inactive_no_flow_12_9_0_0: flow_12_9_0_0 - 1000 edge_12_9_0_0 <= 0
 inactive_no_flow_12_10_0_0: flow_12_10_0_0 - 1000 edge_12_10_0_0 <= 0
 inactive_no_flow_12_11_0_0: flow_12_11_0_0 - 1000 edge_12_11_0_0 <= 0
 inactive_no_flow_12_13_0_0: flow_12_13_0_0 - 1000 edge_12_13_0_0 <= 0
 inactive_no_flow_13_1_0_0: flow_13_1_0_0 - 1000 edge_13_1_0_0 <= 0
 inactive_no_flow_13_2_0_0: flow_13_2_0_0 - 1000 edge_13_2_0_0 <= 0
 inactive_no_flow_13_5_0_0: flow_13_5_0_0 - 1000 edge_13_5_0_0 <= 0
 inactive_no_flow_13_9_0_0: flow_13_9_0_0 - 1000 edge_13_9_0_0 <= 0
 inactive_no_flow_13_10_0_0: flow_13_10_0_0 - 1000 edge_13_10_0_0 <= 0
 inactive_no_flow_13_11_0_0: flow_13_11_0_0 - 1000 edge_13_11_0_0 <= 0
 inactive_no_flow_13_12_0_0: flow_13_12_0_0 - 1000 edge_13_12_0_0 <= 0
Bounds
Binaries
 edge_0_1_0_0 edge_0_2_0_0 edge_0_3_0_0 edge_0_5_0_0 edge_0_7_0_0
 edge_0_8_0_0 edge_0_9_0_0 edge_0_10_0_0 edge_0_12_0_0 edge_0_13_0_0
 edge_1_2_0_0 edge_1_3_0_0 edge_1_5_0_0 edge_1_7_0_0 edge_1_9_0_0
 edge_1_10_0_0 edge_1_12_0_0 edge_1_13_0_0 edge_2_1_0_0 edge_2_3_0_0
 edge_2_5_0_0 edge_2_7_0_0 edge_2_9_0_0 edge_2_10_0_0 edge_2_11_0_0
 edge_2_12_0_0 edge_2_13_0_0 edge_3_1_0_0 edge_3_2_0_0 edge_3_5_0_0
 edge_3_6_0_0 edge_3_7_0_0 edge_3_8_0_0 edge_3_9_0_0 edge_3_10_0_0
 edge_3_11_0_0 edge_3_12_0_0 edge_3_13_0_0 edge_5_1_0_0 edge_5_2_0_0
 edge_5_3_0_0 edge_5_6_0_0 edge_5_7_0_0 edge_5_8_0_0 edge_5_9_0_0
 edge_5_10_0_0 edge_5_11_0_0 edge_5_12_0_0 edge_5_13_0_0 edge_6_5_0_0
 edge_6_7_0_0 edge_6_8_0_0 edge_6_9_0_0 edge_6_10_0_0 edge_6_12_0_0
 edge_6_13_0_0 edge_7_1_0_0 edge_7_2_0_0 edge_7_3_0_0 edge_7_5_0_0
 edge_7_6_0_0 edge_7_8_0_0 edge_7_9_0_0 edge_7_10_0_0 edge_7_11_0_0
 edge_7_12_0_0 edge_7_13_0_0 edge_8_2_0_0 edge_8_3_0_0 edge_8_5_0_0
 edge_8_6_0_0 edge_8_7_0_0 edge_8_9_0_0 edge_8_10_0_0 edge_8_12_0_0
 edge_8_13_0_0 edge_9_1_0_0 edge_9_2_0_0 edge_9_3_0_0 edge_9_5_0_0
 edge_9_6_0_0 edge_9_7_0_0 edge_9_8_0_0 edge_9_10_0_0 edge_9_11_0_0
 edge_9_12_0_0 edge_9_13_0_0 edge_10_1_0_0 edge_10_2_0_0 edge_10_3_0_0
 edge_10_5_0_0 edge_10_7_0_0 edge_10_9_0_0 edge_10_11_0_0 edge_10_12_0_0
 edge_10_13_0_0 edge_11_1_0_0 edge_11_2_0_0 edge_11_5_0_0 edge_11_7_0_0
 edge_11_9_0_0 edge_11_10_0_0 edge_11_12_0_0 edge_11_13_0_0 edge_12_1_0_0
 edge_12_2_0_0 edge_12_3_0_0 edge_12_5_0_0 edge_12_7_0_0 edge_12_8_0_0
 edge_12_9_0_0 edge_12_10_0_0 edge_12_11_0_0 edge_12_13_0_0 edge_13_1_0_0
 edge_13_2_0_0 edge_13_5_0_0 edge_13_9_0_0 edge_13_10_0_0 edge_13_11_0_0
 edge_13_12_0_0
End
